80 254735
35 22 43 19 47 65 20 21 29 15 60 24 11 78 55 54 70 37 76 44 50 33 51 41 46 9 26 71 7 64 23 38 74 62 6 4 67 57 61 40 27 42 14 10 77 49 79 34 48 5 75 52 32 80 39 59 28 2 68 16 36 17 8 30 58 1 18 66 3 31 69 13 45 73 12 72 63 25 56 53 
